c Lingeling SAT Solver
c 
c Version ala b02aa1a04343558c4252b5f4a723be021964f652
c 
c Copyright (C) 2010-2012 Armin Biere JKU Linz Austria.
c All rights reserved.
c 
c released Sat Oct 13 14:05:26 CEST 2012
c compiled Sat Feb 16 02:48:12 EST 2013
c 
c gcc (Debian 4.4.5-8) 4.4.5
c -Wall -O3 -DNLGLOG -DNDEBUG -DNCHKSOL -DNLGLPICOSAT 
c Linux greencar2 2.6.32-5-amd64 x86_64
c 
c reading input file p46.cnf
c no embedded options
c found 'p cnf 225530 701485' header
c read 225530 variables, 701485 clauses, 1459588 literals in 0.0 seconds
c
c feature vars 225530
c feature lits.total 1459588
c feature lits.pos 776615
c feature lits.neg 682973
c feature clauses.total 701485
c feature clauses.unit 83828
c feature clauses.bin 493611
c feature clauses.trn 122646
c feature clauses.lrg 1400
c feature cog.val.min 1
c feature cog.val.avg 100527
c feature cog.val.max 217554
c feature cog.var.min 1
c feature cog.var.avg 112766
c feature cog.var.max 225529
c
c
c --abstime=0
c --acts=2
c --actavgmax=120
c --actstdmin=20
c --actstdmax=80
c --agile=23
c --bias=2
c --block=1
c --blkrtc=0
c --blkclslim=2000
c --blkocclim=2000
c --blkmaxeff=2147483647
c --blkmineff=10000000
c --blkreleff=20
c --card=0
c --cce=3
c --ccemaxeff=100000000
c --ccemineff=5000000
c --ccereleff=3
c --check=0
c --cgrclsr=1
c --cgrmaxority=20
c --cgrmaxeff=8000000
c --cgrmineff=200000
c --cgreleff=1
c --cgrexteq=1
c --cgrextand=1
c --cgrextunits=1
c --cgrextite=1
c --cgrextxor=1
c --cliff=1
c --cliffreleff=8
c --cliffmineff=10000000
c --cliffmaxeff=100000000
c --compact=0
c --decompose=1
c --defragint=10000000
c --defragfree=50
c --elim=1
c --elmrtc=0
c --elmblk=1
c --elmclslim=1000
c --elmocclim=1000
c --elmaxeff=100000000
c --elmineff=5000000
c --elmreleff=10
c --sleeponabort=0
c --exitonabort=0
c --flipping=1
c --flipint=2
c --flipdur=50
c --fliptop=1
c --force=0
c --gauss=1
c --gaussextrall=1
c --gaussmaxor=20
c --gaussexptrn=1
c --gaussmaxeff=50000000
c --gaussmineff=2000000
c --gaussreleff=2
c --gluescale=2
c --gluekeep=0
c --inprocessing=1
c --cintinc=10000
c --irrlim=20
c --lift=1
c --lftmaxeff=20000000
c --lftmineff=500000
c --lftreleff=6
c --lhbr=1
c --lkhd=1
c --clim=-1
c --mocint=1000
c --move=2
c --log=-1
c --otfs=1
c --phase=0
c --phaseneginit=0
c --plain=0
c --probe=1
c --prbasicmaxeff=100000000
c --prbasicmineff=1000000
c --prbasicreleff=10
c --prbasic=1
c --prbasicroundlim=9
c --queuemergelim=10000
c --queuefactor=833
c --queueinc=20
c --rmincpen=4
c --seed=0
c --smallirr=90
c --smallve=1
c --smallvevars=12
c --randec=1
c --randecint=1000
c --redfixed=0
c --redlbound=0
c --redlexpfac=10
c --redldoutfac=0
c --redloutinc=10000
c --redlinit=1000
c --redlinc=1000
c --redinoutinc=100
c --redlmininc=10
c --redlmaxinc=200
c --redlminrel=10
c --redlmaxrel=300
c --redlminabs=500
c --redlmaxabs=1000000
c --reduce=1
c --restart=2
c --restartint=5
c --rstinoutinc=110
c --simplify=1
c --simpdelay=100
c --simpen=4
c --sizepen=1000000
c --sizemaxpen=3
c --sortlits=0
c --syncint=111111
c --termint=122222
c --ternres=1
c --ternresrtc=0
c --trnrmineff=4000000
c --trnrmaxeff=40000000
c --trnreleff=10
c --transred=1
c --trdmineff=100000
c --trdmaxeff=2000000
c --trdreleff=10
c --unhide=1
c --unhdextstamp=1
c --unhdhbr=0
c --unhdmaxeff=20000000
c --unhdmineff=1000000
c --unhdreleff=4
c --unhdlnpr=3
c --unhdroundlim=5
c --verbose=1
c --witness=1
c [limits] no conflict limit
c [limits] simplification delayed by 100 to 100 conflicts
c 
c  seconds         irredundant          redundant clauses agility   height
c          variables clauses conflicts large binary ternary    glue         MB
c 
c *    0.0  125646   529395         0       0      0     0  63  0.0   0.0   42
c [cut-width] 177159, max 271491, min4 122096 at 75%, min10 31200 at 85%
c [decision-order] bias 1, old 1
c [queue-schedule-all-variables]
c s    0.0  125646   529395         0       0      0     0  63  0.0   0.0   42
c [simplification-1] limit hit at 100 conflicts
c [simplification-1] simplification penalty of 4
c [ternres-1] limit 4000000 with penalty 0 = 0 + 0
c [ternres-1] all 125646 free variables schedulable
c [ternres-1] 0 ternary resolvents (0 bin, 0 trn)
c [ternres-1] 26215 variables remain 21% (99431 retained)
c [gauss-1] limit 2000000 penalty 0 = 0 + 0
c [gauss-1] extracted 162713 xors of average arity 2.0
c [gauss-1] connected 325428 occurrences of 111116 variables (average 2.9)
c [gauss-1] limit 2000000 penalty 0 = 0 + 0
c d    1.4   58267   265880       100     100      0     0  69  4.4 293.0   21
c [gauss-1] exported 0 unary, 2 binary and 0 ternary equations
c G    1.4   58267   265880       100     100      0     0  69  4.4 293.0   21
c [basicprobe-1] limit 1000000 penalty 0 = 0 + 0
c [basicprobe-1-0] 3717 probes remain 6% after last round
c [basicprobe-1-0] 1 units = 1 failed (100%) + 0 lifted (0%)
c [basicprobe-1-0] removed 1 variables, found 3310 hbrs
c p    1.7   58266   265880       100     100   3307     0  69  4.4 293.0   26
c [cgrclsr-1] limit 200000 penalty 0 = 0 + 0
c [cgrclsr-1] all 58266 free variables schedulable
c [cgrclsr-1] fully completed congruence closure
c [lift-1] limit 500000 with penalty 0 = 0 + 0
c [lift-1] using 58266 probes 100%
c [lift-1] 58229 variables remain 100% (37 retained)
c [cliff-1] limit of 10000000 steps penalty 0 = 0 + 0
c [cliff-1] failed 0, lifted 1
c K    2.6   58265   265875       100     100  16469     0  69  4.4 293.0   26
c [unhide-1] limit 1000000 with penalty 0 = 0 + 0
c [unhide-1-1] 0 units, 3 failed, 21328 tauts, 0 hbrs, 56 literals
c u    2.9   58262   244542       100     100  16469     0  69  4.4 293.0   26
c [transred-1] limit 100000 with penalty 0 = 0 + 0
c t    2.9   58262   244541       100     100  16466     0  69  4.4 293.0   26
c [block-1] scheduling all variables this time
c [block-1] scheduled 58262 variables 100%
c [block-1] limit of 10000000 steps penalty 0 = 0 + 0
c [block-1] fully completed blocked clause elimination
c [block-1] transition to [ all 0 rem 0 ] state
c [block-1] eliminated 4200 blocked clauses
c k    3.2   58262   240326       100     100  16466  4200  69  4.4 293.0   21
c [cce-1] scheduling all variables this time
c [cce-1] limit of 10000000 steps penalty 0 = 0 + 0
c [cce-1] incomplete covered clause elimination 53211 not tried 91%
c [cce-1] transition to [ all 1 rem 1 ] state
c [cce-1] eliminated 98 covered clauses
c E    3.9   58258   240228       100     100  26255  4200  69  4.4 293.0   21
c [elim-1] scheduling all variables this time
c [elim-1] scheduled 58258 variables 100%
c [elim-1] limit of 5000000 steps penalty 0 = 0 + 0
c [elim-1] incomplete variable elimination 43928 not tried 75%
c [elim-1] transition to [ all 1 rem 1 ] state
c [elim-1] eliminated 5841 = 10% variables out of 58258
c e    5.5   52417   236719       100      51   9456   503  69  4.4 293.0   21
c [phase-1] phase bias: 1300 positive 14%, 7810 negative 86%
c [simplification-1] removed 73229 variables 58%
c [simplification-1] limit increments divided by 30
c [simplification-1] arithmetic increase of conflict limit interval by 333
c [simplification-1] new irredundant limit 2308559
c [simplification-1] new conflict limit 433
c [simplification-1] simplification penalty reduced to 3
c R    5.7   52417   236719       408     328   9465   525  13  9.3 245.3   26
c [simplification-2] limit hit at 433 conflicts
c [simplification-2] simplification penalty of 3
c [ternres-2] limit 2000000 with penalty 1 = 1 + 0
c [ternres-2] 10958 schedulable variables 21%
c [ternres-2] 7 ternary resolvents (0 bin, 7 trn)
c [ternres-2] fully completed ternary resolution
c T    5.7   52417   236719       433     349   9467   534   9  9.1 223.4   26
c [gauss-2] limit 2000000 penalty 0 = 0 + 0
c [gauss-2] extracted 720 xors of average arity 3.0
c [gauss-2] connected 2160 occurrences of 1122 variables (average 1.9)
c [gauss-2] limit 2000000 penalty 0 = 0 + 0
c [gauss-2] fully completed
c [gauss-2] exported 0 unary, 0 binary and 0 ternary equations
c G    6.0   52417   236719       433     349   9467   534   9  9.1 223.4   21
c [basicprobe-2] limit 1000000 penalty 0 = 0 + 0
c [basicprobe-2-0] 3478 probes remain 7% after last round
c [basicprobe-2-0] removed 0 variables, found 1478 hbrs
c p    6.2   52417   236719       433     349  10945   533   9  9.1 223.4   26
c [cgrclsr-2] limit 100000 penalty 1 = 1 + 0
c [cgrclsr-2] all 52417 free variables schedulable
c [cgrclsr-2] fully completed congruence closure
c [lift-2] limit 250000 with penalty 1 = 1 + 0
c [lift-2] using 52384 probes 100%
c [lift-2] 52368 variables remain 100% (49 retained)
c [cliff-2] limit of 10000000 steps penalty 0 = 0 + 0
c [cliff-2] failed 0, lifted 0
c [unhide-2] limit 1000000 with penalty 0 = 0 + 0
c [unhide-2-2] 0 units, 0 failed, 1768 tauts, 0 hbrs, 201 literals
c u    7.2   52417   236715       433     348   9580   533   9  9.1 223.4   26
c [transred-3] limit 100000 with penalty 0 = 0 + 0
c t    7.2   52417   236713       433     348   9574   533   9  9.1 223.4   26
c [block-2] scheduling all variables this time
c [block-2] scheduled 52417 variables 100%
c [block-2] limit of 10000000 steps penalty 0 = 0 + 0
c [block-2] fully completed blocked clause elimination
c [block-2] transition to [ all 0 rem 0 ] state
c [block-2] eliminated 0 blocked clauses
c [cce-2] 49861 variables 95% will be scheduled this time
c [cce-2] limit of 10000000 steps penalty 0 = 0 + 0
c [cce-2] 49415 variables 94% remain to be tried next time
c [cce-2] transition to [ all 0 rem 1 ] state
c [cce-2] eliminated 302 covered clauses
c E    8.0   52417   236411       433     348  10204   533   9  9.1 223.4   21
c [elim-2] 43879 variables 84% will be scheduled this time
c [elim-2] scheduled 43879 variables 84%
c [elim-2] limit of 5000000 steps penalty 0 = 0 + 0
c [elim-2] 33924 variables 65% remain to be tried next time
c [elim-2] transition to [ all 0 rem 1 ] state
c [elim-2] eliminated 927 = 2% variables out of 52417
c e    9.6   51490   236059       433     315   7615   532   9  9.1 223.4   21
c [phase-2] phase bias: 3 positive 100%, 0 negative 0%
c [simplification-2] removed 927 variables 1%
c [simplification-2] no reduction of limit increments
c [simplification-2] arithmetic increase of conflict limit interval by 10000
c [simplification-2] new irredundant limit 2308559
c [simplification-2] new conflict limit 10766
c [simplification-2] simplification penalty reduced to 2
c R   10.1   51490   236059       971     788   7630   578   5  7.5 236.3   26
c -   10.4   51490   236059      1255     503   7645   623   4  6.8 232.1   26
c R   10.9   51490   236059      2261    1429   7663   680   6  7.5 252.1   26
c -   12.5   51490   236059      4206    1531   7746   886   4  6.7 226.8   26
c 
c  seconds         irredundant          redundant clauses agility   height
c          variables clauses conflicts large binary ternary    glue         MB
c 
c R   12.8   51490   236059      5167    2481   7750   893   7  8.3 258.1   26
c 1   14.3   51490   236059      7058    4094   7840  1046   8  7.8 236.7   27
c 
c  seconds         irredundant          redundant clauses agility   height
c          variables clauses conflicts large binary ternary    glue         MB
c 
c blkd: 2 bces, 4200 removed, 1391399 resolutions, 3879776 steps
c blkd: 4200 blocking literals 1%, 0 pure
c cces: 2 cces, 383 eliminated, 383 ate 100%, 0 abce 0%
c cces: 10992 probed, 3 lifted, 4 failed
c clff: 2 cliffs, 1 lifted, 0 failed
c clff: 8197 decisions, 20011005 steps
c clls: 1 sat, 0 simp, 0 freeze, 0 melt
c clls: 2161073 add, 0 assume,, 0 deref, 0 failed
c clls: 0 cassume, 0 mosat
c coll: 14 gcs, 0 rescored clauses
c cgrs: 2 count, 300008 esteps, 59548 csteps
c cgrs: 0 eqs, 0 units
c cgrs: 0 matched (0 ands 0%, 0 xors 0%, 0 ites 0%)
c cgrs: 0 simplified (0 ands 0%, 0 xors 0%, 0 ites 0%)
c cgrs: 1879 extracted (1605 ands 85%, 274 xors 15%, 0 ites 0%)
c dcps: 3 decompositions, 67379 equivalent 30%
c decs: 125922 decision, 122 random 0.097%
c decs: 31440 flipped 24.968% (in 48 phases)
c elms: 2 elims, 6768 eliminated 3%
c elms: 6768 small 100%, 0 large 0%
c elms: 24425 tried small, 6768 succeeded 28%, 17657 failed 72%
c elms: 0 subsumed, 0 strengthened, 0 blocked
c elms: 314081 copies, 216986 resolutions, 650125 ipos
c elms: 0 subchks, 0 strchks
c frcs: 0 computed, 27.7 - 72.3 average min-cut range
c gaus: 2 extractions, 163433 extracted, 2.0 size, 3 max
c gaus: exported 0 units, 2 binary and 0 ternary equations
c gaus: 0 gc, 8000096 steps, 4000048 extr 50%, 2328626 elim 29%
c glue: 7.8 avg, 2.7 scaled avg
c glue: 0 maxredglue=15 (0%)
c lift: 2 phases, 317 probed (106 level1 33%, 211 level2 67%)
c lift: 0 units, 0 equivalences, 1 implications
c hbrs: 28388 hbrs = 28388 trn 100% + 0 lrg 0%, 5 sub 0%
c lrnd: 6984 clauses, 4270 uips 61%, 25.4 length, 7.8 glue
c ints: 381 luby (45223 steps), 0 inout (0 steps)
c mins: 177722 learned lits, 5% minimized
c move: moved 4583, 383 binary 8%, 4200 ternary 92%
c otfs: str 273 dyn (222 red, 51 irr) 74 drv 27%, 199 rst 73%
c otfs: sub 1 dyn (1 red, 0 irr)
c phas: 2 computed, 9225 set, 1303 pos (14%), 7922 neg (86%)
c prbs: 2 basic, 2555 probed, 1 failed, 0 lifted
c prps: 22062243 props, 122 props/dec
c prps: 70% srch, 30% simp, 0% lkhd
c psns: 695221 searches, 94759 hits, 14% hit rate
c queu: 26141 new, 9449 del, 120 maximum priority
c queu: 16675 merged, 11339 collected, 3 gcs
c queu: 7257 deprioritized, 23.6 lines on average
c reds: 2 count, 0 reset, 2 acts 100%, 0 exp 0%
c reds: 2 arithmetic 100%, 2 double 100%
c rmbd: 4 removed, 0 red 0%
c rsts: 329 restarts 87%, 51 skipped 13%
c rsts: 66 kept 20.1% average 43.6%
c simp: 2 count (0 ilim 0%, 0 plim 0%, 2 clim 100%)
c trnr: 2 count, 0 bin, 7 trn, 4904121 steps
c tops: 99893 fixed 44%, 0 iterations
c trds: 4 transitive reductions, 12 removed, 0 failed
c trds: 194 nodes, 269 edges, 201340 steps
c unhd: 2 count, 2 rounds, 2487561 steps
c unhd: 0 non-trivial sccs of average size 0.0
c unhd: 0 units, 0 bin, 0 trn, 0 lrg
c unhd: 3 failed, 3 stamp, 0 lits, 0 bin, 0 trn, 0 lrg
c unhd: 23096 tauts, 0 bin 0%, 0 trn 0%, 0 lrg 0%
c unhd: 23096 tauts, 23096 stamp 100%, 1768 red 8%
c unhd: 0 hbrs, 0 trn 0%, 0 lrg 0%, 0 red 0%
c unhd: 257 strd, 0 bin 0%, 0 trn 0%, 257 lrg 100%, 257 red 100%
c vars: 51490 remaining 23% and 174040 removed 77% out of 225530
c vars: 99893 fixed 44%, 6768 eliminated 3%, 67379 equivalent 30%
c vsts: 107962696 visits, 72% srch, 28% simp, 0% lkhd
c vsts: 5.0 search visits per propagation 11009.8 per conflict
c wchs: 9887018 pushed, 4253680 enlarged, 23 defrags
c 
c scaledglue  added       reduced       forcing      resolved     conflicts
c 
c all      6227 100      2032 100     37299 100     12677 100       878 100
c 
c  0          0   0         0   0         0   0         0   0         0   0 
c  1         45   1         0   0       532   1        87   1         8   1 
c  2       2393  38       898  44     17278  46      4380  35       279  32 
c  3       2050  33<      719  35<    14206  38<     4434  35<      313  36<
c  4       1090  18       291  14      4155  11      2556  20       212  24 
c  5        423   7        89   4       812   2       811   6        43   5 
c  6        119   2        28   1       172   0       214   2         9   1 
c  7         55   1         7   0        80   0       108   1        11   1 
c  8         17   0         0   0        21   0        28   0         2   0 
c  9          8   0         0   0         9   0        13   0         0   0 
c 10         14   0         0   0        18   0        24   0         0   0 
c 11         12   0         0   0        15   0        21   0         1   0 
c 12          1   0         0   0         1   0         1   0         0   0 
c 13          0   0         0   0         0   0         0   0         0   0 
c 14          0   0         0   0         0   0         0   0         0   0 
c 15          0   0         0   0         0   0         0   0         0   0 
c 
c avg             3.1           2.8           2.7           3.1           3.1
c std             1.2           1.0           0.9           1.2           1.1
c 
c 125922 decisions, 7058 conflicts, 491.6 conflicts/sec
c 22062243 propagations, 1.5 megaprops/sec
c 14.4 seconds, 48.9 MB
c 
c    0.696   5% analysis
c    0.520   4% block
c    0.036   0% bump
c    0.000   0% card
c    1.284   9% cce
c    1.128   8% cliff
c    0.024   0% cutwidth
c    0.260   2% decide
c    0.000   0% force
c    1.036   7% gc
c    0.376   3% cgrclsr
c    0.540   4% decomp
c    0.264   2% defrag
c    3.164  22% elim
c    1.484  10% gauss
c    0.300   2% lift
c    0.080   1% mincls
c    0.080   1% phase
c    0.184   1% probe
c    0.012   0% reduce
c    0.348   2% restart
c    0.148   1% ternres
c    0.020   0% transred
c    0.420   3% unhide
c ==================================
c    0.032   0% preprocessing     0%
c    9.553  67% inprocessing    100%
c ==================================
c    9.585  67% simplifying
c    0.000   0% lookahead
c    4.756  33% search
c ==================================
c   14.357 100% all
c
s SATISFIABLE
